(declare-fun var0 () String)
(assert (RegexIn var0 (RegexConcat (RegexPlus (RegexStar (Str2Reg "iii"))) (RegexConcat (RegexUnion (RegexUnion (Str2Reg "e") (Str2Reg "ff")) (RegexUnion (Str2Reg "ggg") (Str2Reg "h"))) (RegexConcat (RegexStar (RegexUnion (Str2Reg "cc") (Str2Reg "dd"))) (RegexConcat (RegexStar (RegexPlus (Str2Reg "bb"))) (RegexConcat (RegexPlus (RegexPlus (Str2Reg "aa"))) (RegexConcat (RegexStar (RegexUnion (Str2Reg "888") (Str2Reg "9"))) (RegexConcat (RegexStar (RegexUnion (Str2Reg "666") (Str2Reg "77"))) (RegexConcat (RegexPlus (RegexPlus (Str2Reg "55"))) (RegexConcat (RegexPlus (RegexPlus (Str2Reg "444"))) (RegexUnion (RegexUnion (Str2Reg "000") (Str2Reg "111")) (RegexUnion (Str2Reg "22") (Str2Reg "33"))))))))))))))
(assert (RegexIn var0 (RegexConcat (RegexPlus (RegexUnion (Str2Reg "e") (Str2Reg "f"))) (RegexConcat (RegexUnion (RegexUnion (Str2Reg "bbb") (Str2Reg "cc")) (RegexPlus (Str2Reg "dd"))) (RegexConcat (RegexPlus (RegexPlus (Str2Reg "aa"))) (RegexConcat (RegexPlus (RegexUnion (Str2Reg "8") (Str2Reg "99"))) (RegexConcat (RegexPlus (RegexStar (Str2Reg "777"))) (RegexConcat (RegexUnion (RegexStar (Str2Reg "5")) (RegexStar (Str2Reg "66"))) (RegexConcat (RegexPlus (RegexUnion (Str2Reg "33") (Str2Reg "4"))) (RegexConcat (RegexPlus (RegexStar (Str2Reg "2"))) (RegexConcat (RegexPlus (RegexStar (Str2Reg "11"))) (RegexPlus (RegexPlus (Str2Reg "000"))))))))))))))
(assert (RegexIn var0 (RegexConcat (RegexPlus (RegexStar (Str2Reg "gg"))) (RegexConcat (RegexStar (RegexPlus (Str2Reg "ff"))) (RegexConcat (RegexUnion (RegexUnion (Str2Reg "ccc") (Str2Reg "dd")) (RegexPlus (Str2Reg "e"))) (RegexConcat (RegexStar (RegexStar (Str2Reg "bb"))) (RegexConcat (RegexUnion (RegexStar (Str2Reg "99")) (RegexStar (Str2Reg "aaa"))) (RegexConcat (RegexStar (RegexPlus (Str2Reg "88"))) (RegexConcat (RegexStar (RegexUnion (Str2Reg "666") (Str2Reg "7"))) (RegexConcat (RegexUnion (RegexPlus (Str2Reg "44")) (RegexStar (Str2Reg "55"))) (RegexConcat (RegexStar (RegexUnion (Str2Reg "22") (Str2Reg "33"))) (RegexPlus (RegexUnion (Str2Reg "000") (Str2Reg "1"))))))))))))))
(assert (RegexIn var0 (RegexConcat (RegexPlus (RegexPlus (Str2Reg "hhh"))) (RegexConcat (RegexPlus (RegexUnion (Str2Reg "fff") (Str2Reg "ggg"))) (RegexConcat (RegexUnion (RegexStar (Str2Reg "d")) (RegexPlus (Str2Reg "e"))) (RegexConcat (RegexStar (RegexStar (Str2Reg "ccc"))) (RegexConcat (RegexUnion (RegexStar (Str2Reg "a")) (RegexStar (Str2Reg "bbb"))) (RegexConcat (RegexStar (RegexPlus (Str2Reg "99"))) (RegexConcat (RegexUnion (RegexUnion (Str2Reg "555") (Str2Reg "666")) (RegexUnion (Str2Reg "7") (Str2Reg "88"))) (RegexConcat (RegexPlus (RegexUnion (Str2Reg "3") (Str2Reg "444"))) (RegexConcat (RegexUnion (RegexStar (Str2Reg "111")) (RegexPlus (Str2Reg "2"))) (RegexStar (RegexPlus (Str2Reg "00"))))))))))))))
(assert (RegexIn var0 (RegexConcat (RegexUnion (RegexPlus (Str2Reg "e")) (RegexStar (Str2Reg "fff"))) (RegexConcat (RegexStar (RegexPlus (Str2Reg "dd"))) (RegexConcat (RegexPlus (RegexUnion (Str2Reg "bbb") (Str2Reg "ccc"))) (RegexConcat (RegexPlus (RegexPlus (Str2Reg "aa"))) (RegexConcat (RegexStar (RegexStar (Str2Reg "999"))) (RegexConcat (RegexUnion (RegexStar (Str2Reg "666")) (RegexUnion (Str2Reg "7") (Str2Reg "88"))) (RegexConcat (RegexStar (RegexUnion (Str2Reg "4") (Str2Reg "55"))) (RegexConcat (RegexStar (RegexPlus (Str2Reg "3"))) (RegexConcat (RegexPlus (RegexPlus (Str2Reg "22"))) (RegexStar (RegexUnion (Str2Reg "000") (Str2Reg "11"))))))))))))))
(assert (RegexIn var0 (RegexConcat (RegexUnion (RegexUnion (Str2Reg "hhh") (Str2Reg "ii")) (RegexPlus (Str2Reg "jj"))) (RegexConcat (RegexStar (RegexStar (Str2Reg "ggg"))) (RegexConcat (RegexUnion (RegexUnion (Str2Reg "d") (Str2Reg "ee")) (RegexPlus (Str2Reg "ff"))) (RegexConcat (RegexStar (RegexUnion (Str2Reg "b") (Str2Reg "c"))) (RegexConcat (RegexStar (RegexPlus (Str2Reg "aa"))) (RegexConcat (RegexStar (RegexUnion (Str2Reg "888") (Str2Reg "9"))) (RegexConcat (RegexStar (RegexUnion (Str2Reg "66") (Str2Reg "7"))) (RegexConcat (RegexUnion (RegexStar (Str2Reg "4")) (RegexStar (Str2Reg "555"))) (RegexConcat (RegexPlus (RegexUnion (Str2Reg "22") (Str2Reg "33"))) (RegexStar (RegexUnion (Str2Reg "0") (Str2Reg "11"))))))))))))))
(assert (RegexIn var0 (RegexConcat (RegexUnion (RegexStar (Str2Reg "aa")) (RegexUnion (Str2Reg "bb") (Str2Reg "ccc"))) (RegexConcat (RegexPlus (RegexStar (Str2Reg "9"))) (RegexConcat (RegexStar (RegexStar (Str2Reg "888"))) (RegexConcat (RegexPlus (RegexPlus (Str2Reg "777"))) (RegexConcat (RegexStar (RegexStar (Str2Reg "666"))) (RegexConcat (RegexPlus (RegexStar (Str2Reg "555"))) (RegexConcat (RegexPlus (RegexStar (Str2Reg "4"))) (RegexConcat (RegexStar (RegexStar (Str2Reg "333"))) (RegexConcat (RegexPlus (RegexPlus (Str2Reg "222"))) (RegexStar (RegexUnion (Str2Reg "00") (Str2Reg "11"))))))))))))))
(assert (RegexIn var0 (RegexConcat (RegexPlus (RegexUnion (Str2Reg "hh") (Str2Reg "iii"))) (RegexConcat (RegexStar (RegexUnion (Str2Reg "ff") (Str2Reg "gg"))) (RegexConcat (RegexStar (RegexStar (Str2Reg "eee"))) (RegexConcat (RegexUnion (RegexUnion (Str2Reg "bb") (Str2Reg "c")) (RegexStar (Str2Reg "dd"))) (RegexConcat (RegexPlus (RegexUnion (Str2Reg "9") (Str2Reg "aa"))) (RegexConcat (RegexUnion (RegexStar (Str2Reg "77")) (RegexStar (Str2Reg "88"))) (RegexConcat (RegexPlus (RegexStar (Str2Reg "66"))) (RegexConcat (RegexUnion (RegexStar (Str2Reg "4")) (RegexPlus (Str2Reg "555"))) (RegexConcat (RegexPlus (RegexUnion (Str2Reg "2") (Str2Reg "333"))) (RegexUnion (RegexPlus (Str2Reg "000")) (RegexPlus (Str2Reg "111"))))))))))))))
(assert (RegexIn var0 (RegexConcat (RegexPlus (RegexPlus (Str2Reg "gg"))) (RegexConcat (RegexPlus (RegexUnion (Str2Reg "ee") (Str2Reg "fff"))) (RegexConcat (RegexStar (RegexStar (Str2Reg "d"))) (RegexConcat (RegexUnion (RegexStar (Str2Reg "bb")) (RegexStar (Str2Reg "c"))) (RegexConcat (RegexPlus (RegexPlus (Str2Reg "aa"))) (RegexConcat (RegexUnion (RegexPlus (Str2Reg "7")) (RegexUnion (Str2Reg "888") (Str2Reg "9"))) (RegexConcat (RegexUnion (RegexStar (Str2Reg "4")) (RegexUnion (Str2Reg "555") (Str2Reg "66"))) (RegexConcat (RegexPlus (RegexStar (Str2Reg "333"))) (RegexConcat (RegexStar (RegexStar (Str2Reg "222"))) (RegexUnion (RegexPlus (Str2Reg "0")) (RegexPlus (Str2Reg "1"))))))))))))))
(assert (RegexIn var0 (RegexConcat (RegexStar (RegexPlus (Str2Reg "ggg"))) (RegexConcat (RegexStar (RegexUnion (Str2Reg "e") (Str2Reg "ff"))) (RegexConcat (RegexStar (RegexUnion (Str2Reg "ccc") (Str2Reg "ddd"))) (RegexConcat (RegexPlus (RegexUnion (Str2Reg "aa") (Str2Reg "bbb"))) (RegexConcat (RegexPlus (RegexUnion (Str2Reg "88") (Str2Reg "9"))) (RegexConcat (RegexStar (RegexStar (Str2Reg "7"))) (RegexConcat (RegexStar (RegexStar (Str2Reg "666"))) (RegexConcat (RegexPlus (RegexPlus (Str2Reg "5"))) (RegexConcat (RegexUnion (RegexUnion (Str2Reg "222") (Str2Reg "33")) (RegexStar (Str2Reg "444"))) (RegexUnion (RegexStar (Str2Reg "0")) (RegexPlus (Str2Reg "11"))))))))))))))
(assert (RegexIn var0 (RegexConcat (RegexStar (RegexUnion (Str2Reg "dd") (Str2Reg "eee"))) (RegexConcat (RegexStar (RegexPlus (Str2Reg "c"))) (RegexConcat (RegexStar (RegexStar (Str2Reg "b"))) (RegexConcat (RegexStar (RegexStar (Str2Reg "aaa"))) (RegexConcat (RegexStar (RegexPlus (Str2Reg "999"))) (RegexConcat (RegexUnion (RegexStar (Str2Reg "6")) (RegexUnion (Str2Reg "77") (Str2Reg "8"))) (RegexConcat (RegexStar (RegexPlus (Str2Reg "555"))) (RegexConcat (RegexUnion (RegexStar (Str2Reg "3")) (RegexStar (Str2Reg "44"))) (RegexConcat (RegexStar (RegexStar (Str2Reg "2"))) (RegexUnion (RegexPlus (Str2Reg "0")) (RegexPlus (Str2Reg "111"))))))))))))))
(assert (RegexIn var0 (RegexConcat (RegexUnion (RegexStar (Str2Reg "gg")) (RegexUnion (Str2Reg "hhh") (Str2Reg "i"))) (RegexConcat (RegexUnion (RegexPlus (Str2Reg "e")) (RegexStar (Str2Reg "f"))) (RegexConcat (RegexPlus (RegexPlus (Str2Reg "ddd"))) (RegexConcat (RegexUnion (RegexStar (Str2Reg "b")) (RegexPlus (Str2Reg "c"))) (RegexConcat (RegexStar (RegexUnion (Str2Reg "999") (Str2Reg "a"))) (RegexConcat (RegexPlus (RegexStar (Str2Reg "88"))) (RegexConcat (RegexStar (RegexUnion (Str2Reg "6") (Str2Reg "7"))) (RegexConcat (RegexUnion (RegexStar (Str2Reg "4")) (RegexStar (Str2Reg "555"))) (RegexConcat (RegexUnion (RegexPlus (Str2Reg "2")) (RegexPlus (Str2Reg "3"))) (RegexStar (RegexUnion (Str2Reg "00") (Str2Reg "111"))))))))))))))
(check-sat)